Instance Name : r106
Date : 2022-07-20
Solution
Route 1 : 94 92 37 98 85 61 16 84 17 5 60
Route 2 : 42 14 44 38 86 91 100 93 59
Route 3 : 96 99 6 95 97 13
Route 4 : 40 87 57 43 2 58
Route 5 : 15 73 41 22 75 56 74 72 21
Route 6 : 39 23 67 55 4 25 26
Route 7 : 48 47 36 19 49 46 82 7 52
Route 8 : 83 45 8 18 89
Route 9 : 62 88 53
Route 10 : 63 64 11 90 10 31
Route 11 : 27 69 1 30 51 20 66 32 70
Route 12 : 28 76 68 54 24 80
Route 13 : 12 29 79 78 81 50
Route 14 : 33 65 71 9 35 34 3 77
